lps/t_sol_ini_ID000M003J004_ZintTrue_liao.lp
\ This file has been generated by DOcplex
\ ENCODING=ISO-8859-1
\Problem name: liao

Minimize
 obj: cmax
Subject To
 c1: x_1_0 - x_0_0 >= 1
 c2: x_2_0 - x_1_0 >= 3
 c3: x_0_1 - x_1_1 >= 8
 c4: x_2_1 - x_0_1 >= 5
 c5: x_2_2 - x_0_2 >= 5
 c6: x_1_2 - x_2_2 >= 4
 c7: x_0_3 - x_2_3 >= 4
 c8: x_1_3 - x_0_3 >= 10
 c9: x_0_0 - x_0_1 + 66 z_0_0_1 - q_0_0_1 = 5
 c10: x_0_0 - x_0_2 + 66 z_0_0_2 - q_0_0_2 = 5
 c11: x_0_0 - x_0_3 + 66 z_0_0_3 - q_0_0_3 = 10
 c12: x_0_1 - x_0_2 + 66 z_0_1_2 - q_0_1_2 = 5
 c13: x_0_1 - x_0_3 + 66 z_0_1_3 - q_0_1_3 = 10
 c14: x_0_2 - x_0_3 + 66 z_0_2_3 - q_0_2_3 = 10
 c15: x_1_0 - x_1_1 + 66 z_1_0_1 - q_1_0_1 = 8
 c16: x_1_0 - x_1_2 + 66 z_1_0_2 - q_1_0_2 = 8
 c17: x_1_0 - x_1_3 + 66 z_1_0_3 - q_1_0_3 = 6
 c18: x_1_1 - x_1_2 + 66 z_1_1_2 - q_1_1_2 = 8
 c19: x_1_1 - x_1_3 + 66 z_1_1_3 - q_1_1_3 = 6
 c20: x_1_2 - x_1_3 + 66 z_1_2_3 - q_1_2_3 = 6
 c21: x_2_0 - x_2_1 + 66 z_2_0_1 - q_2_0_1 = 10
 c22: x_2_0 - x_2_2 + 66 z_2_0_2 - q_2_0_2 = 4
 c23: x_2_0 - x_2_3 + 66 z_2_0_3 - q_2_0_3 = 4
 c24: x_2_1 - x_2_2 + 66 z_2_1_2 - q_2_1_2 = 4
 c25: x_2_1 - x_2_3 + 66 z_2_1_3 - q_2_1_3 = 4
 c26: x_2_2 - x_2_3 + 66 z_2_2_3 - q_2_2_3 = 4
 c27: cmax - x_2_0 >= 2
 c28: cmax - x_2_1 >= 10
 c29: cmax - x_1_2 >= 8
 c30: cmax - x_1_3 >= 6

Bounds
 0 <= z_0_0_1 <= 1
 0 <= z_0_0_2 <= 1
 0 <= z_0_0_3 <= 1
 0 <= z_0_1_2 <= 1
 0 <= z_0_1_3 <= 1
 0 <= z_0_2_3 <= 1
 0 <= z_1_0_1 <= 1
 0 <= z_1_0_2 <= 1
 0 <= z_1_0_3 <= 1
 0 <= z_1_1_2 <= 1
 0 <= z_1_1_3 <= 1
 0 <= z_1_2_3 <= 1
 0 <= z_2_0_1 <= 1
 0 <= z_2_0_2 <= 1
 0 <= z_2_0_3 <= 1
 0 <= z_2_1_2 <= 1
 0 <= z_2_1_3 <= 1
 0 <= z_2_2_3 <= 1
 29 <= cmax
       q_0_0_1 <= 60
       q_0_0_2 <= 60
       q_0_0_3 <= 55
       q_0_1_2 <= 56
       q_0_1_3 <= 51
       q_0_2_3 <= 51
       q_1_0_1 <= 55
       q_1_0_2 <= 55
       q_1_0_3 <= 57
       q_1_1_2 <= 50
       q_1_1_3 <= 52
       q_1_2_3 <= 52
       q_2_0_1 <= 54
       q_2_0_2 <= 60
       q_2_0_3 <= 60
       q_2_1_2 <= 52
       q_2_1_3 <= 52
       q_2_2_3 <= 58

Binaries
 z_0_0_1 z_0_0_2 z_0_0_3 z_0_1_2 z_0_1_3 z_0_2_3 z_1_0_1 z_1_0_2 z_1_0_3 z_1_1_2
 z_1_1_3 z_1_2_3 z_2_0_1 z_2_0_2 z_2_0_3 z_2_1_2 z_2_1_3 z_2_2_3
End
